p cnf 35 31
-210 -1160
-244 -940
-537 -7264
-537 -7482
-537 -7977
-636 -7977
-636 -9496
-799 -10336
-1160 -7053
-2067 -6117
-2067 -7977
-3271 -5206
-3808 -6985
-3808 -8655
-3808 -10674
-4133 -6117
-4133 -7038
-4133 -8021
-4490 -7038
-5422 -8655
-5911 -6035
-5911 -6316
-5911 -7977
-6035 -7053
-6035 -9956
-6371 -9496
-7038 -7264
-7053 -7977
-7053 -10778
-7290 -7482
-9189 -9850

